100	5
25	1000
10
7
13
19
26
3
5
9
16
16
12
19
23
20
8
19
2
12
17
9
11
18
29
3
6
17
16
16
9
21
27
23
11
14
8
5
8
16
31
9
5
5
7
18
16
1
27
36
30
13
10
9
14
18
2
6
7
18
28
3
13
19
10
9
20
25
25
36
6
5
15
25
9
8
18
13
14
3
23
6
26
16
11
7
41
35
26
9
15
3
1
2
22
27
20
11
12
10
9
17
35	35	0	1000	0	0
41	49	636	919	10	2
35	17	74	351	10	3
55	45	498	613	10	3
55	20	470	965	10	1
15	30	20	370	10	3
25	30	266	663	10	2
20	50	292	449	10	1
10	43	288	597	10	2
55	60	254	643	10	1
30	60	496	713	10	1
20	65	33	510	10	2
50	35	170	403	10	1
30	25	426	978	10	3
15	10	32	454	10	2
30	5	30	529	10	1
10	20	222	423	10	1
5	30	409	959	10	3
20	40	349	462	10	3
15	60	215	432	10	2
45	65	538	709	10	2
45	20	156	389	10	2
45	10	280	623	10	2
55	5	36	513	10	3
65	35	633	918	10	3
65	20	400	956	10	3
45	30	548	707	10	2
35	40	5	612	10	3
41	37	44	325	10	2
64	42	129	374	10	3
40	60	115	498	10	3
31	52	91	336	10	2
35	69	602	835	10	2
53	52	24	646	10	1
65	55	487	656	10	2
63	65	439	948	10	3
2	60	41	710	10	1
20	20	563	736	10	1
5	5	147	560	10	3
60	12	33	797	10	3
40	25	243	554	10	3
42	7	225	682	10	3
24	12	25	616	10	1
23	3	578	747	10	2
11	14	72	501	10	3
6	38	29	669	10	2
2	48	458	685	10	1
8	56	34	362	10	3
13	52	694	962	10	1
6	68	444	597	10	1
47	47	499	690	10	3
49	58	296	505	10	2
27	43	111	362	10	1
37	31	301	602	10	3
57	29	595	780	10	2
63	23	442	917	10	3
53	12	426	851	10	3
32	12	366	585	10	2
36	26	458	980	10	1
21	24	17	441	10	2
17	34	651	932	10	3
12	24	246	421	10	1
24	58	25	583	10	1
27	69	34	348	10	3
15	77	46	523	10	2
62	77	49	608	10	1
49	73	440	845	10	3
67	5	132	563	10	3
56	39	464	925	10	1
37	47	12	535	10	1
37	56	249	968	10	1
57	68	218	417	10	1
47	16	22	377	10	1
44	17	263	444	10	3
46	13	479	965	10	3
49	11	182	399	10	2
49	42	166	497	10	3
53	43	430	970	10	3
61	52	212	671	10	1
57	48	273	580	10	2
56	37	452	968	10	1
55	54	388	479	10	1
15	47	99	352	10	2
14	37	21	328	10	2
11	31	323	624	10	1
16	22	333	504	10	3
4	18	350	503	10	2
28	18	380	487	10	3
26	52	114	553	10	1
26	35	649	981	10	2
31	67	345	534	10	2
15	19	675	930	10	1
22	22	18	673	10	3
18	24	339	969	10	3
26	27	403	536	10	3
25	24	22	301	10	1
22	27	565	732	10	1
25	21	582	703	10	2
19	21	122	367	10	3
20	26	185	580	10	1
18	18	297	965	10	1
53	50	0	1000	5	4
16	9	0	1000	5	4
25	43	0	1000	5	4
15	3	0	1000	5	4
28	39	0	1000	5	4
1	0	0	0	0	
0	1	0	0	0	
1	0	0	0	0	
0	0	0	0	0	
0	0	0	0	1	
0	0	0	0	1	
0	0	0	0	0	
0	0	1	0	0	
0	0	0	0	0	
0	0	0	0	0	
0	0	1	0	0	
0	0	0	0	0	
0	0	0	0	1	
0	1	0	0	0	
0	0	0	0	0	
0	0	0	0	0	
0	1	0	0	0	
0	0	1	0	0	
0	0	1	0	0	
1	0	0	0	0	
0	0	0	0	1	
0	1	0	0	0	
0	1	0	0	0	
1	0	0	0	0	
1	0	0	0	0	
0	0	0	0	1	
0	0	0	0	1	
0	0	0	0	1	
1	0	0	0	0	
1	0	0	0	0	
0	0	1	0	0	
1	0	0	0	0	
0	0	0	0	0	
1	0	0	0	0	
1	0	0	0	0	
0	0	0	0	0	
0	0	0	0	0	
0	0	0	1	0	
1	0	0	0	0	
0	0	0	0	1	
0	1	0	0	0	
0	0	0	0	0	
0	0	0	1	0	
0	1	0	0	0	
0	0	1	0	0	
0	0	0	0	0	
0	0	1	0	0	
0	0	0	0	0	
0	0	0	0	0	
1	0	0	0	0	
1	0	0	0	0	
0	0	0	0	0	
0	0	0	0	1	
1	0	0	0	0	
1	0	0	0	0	
0	0	0	0	1	
0	1	0	0	0	
0	0	0	0	0	
0	1	0	0	0	
0	0	1	0	0	
0	0	0	0	0	
0	0	0	0	0	
0	0	1	0	0	
0	0	1	0	0	
0	0	0	0	0	
1	0	0	0	0	
1	0	0	0	0	
0	0	0	0	0	
0	0	0	0	0	
0	0	0	0	0	
0	0	0	0	0	
0	0	0	0	0	
0	0	0	0	1	
0	1	0	0	0	
0	1	0	0	0	
1	0	0	0	0	
1	0	0	0	0	
0	0	0	0	0	
1	0	0	0	0	
0	0	0	0	0	
0	0	0	0	0	
0	0	1	0	0	
0	0	1	0	0	
0	0	0	0	0	
0	1	0	0	0	
0	1	0	0	0	
0	1	0	0	0	
0	0	0	0	0	
0	0	0	0	1	
0	0	1	0	0	
0	0	0	0	0	
0	1	0	0	0	
0	1	0	0	0	
0	0	0	0	1	
0	0	0	0	0	
0	0	0	0	0	
0	1	0	0	0	
0	1	0	0	0	
0	0	0	0	0	
0	0	0	0	0	
